100
150
100
100
99
99
98
98
98
96
96
95
94
94
93
93
92
92
91
91
90
89
88
88
88
88
88
87
86
86
85
85
85
85
84
84
84
83
83
83
81
80
80
80
79
77
77
75
75
74
72
72
69
68
68
66
65
65
64
64
63
61
61
60
60
58
58
58
58
57
57
56
56
55
54
49
49
47
47
47
46
45
44
43
42
42
41
40
40
36
34
34
33
33
32
32
32
32
32
31
30
30
